============================[ Problem Statistics ]=============================|                                                                             ||  Number of variables:          4242                                         ||  Number of clauses:            9845                                         ||  Parse time:                   0.25 s                                       ||                                                                             |============================[ Search Statistics ]==============================| Conflicts |          ORIGINAL         |          LEARNT          | Progress ||           |    Vars  Clauses Literals |    Limit  Clauses Lit/Cl |          |===============================================================================|       100 |    1591     6050   372951 |     2218      100     53 | 62.501 % |===============================================================================restarts              : 2conflicts             : 145            (365 /sec)decisions             : 316            (0.00 % random) (796 /sec)propagations          : 9947           (25055 /sec)conflict literals     : 9254           (95.45 % deleted)CPU time              : 0.397 sSATISFIABLE